c CNF file corresponding to a (partial) station packing problem.
p cnf 5442 229
1 2 3 4 5 6 7 8 9 10 11 12 13 14 0
-1 -2 0
-1 -3 0
-1 -4 0
-1 -5 0
-1 -6 0
-1 -7 0
-1 -8 0
-1 -9 0
-1 -10 0
-1 -11 0
-1 -12 0
-1 -13 0
-1 -14 0
-2 -3 0
-2 -4 0
-2 -5 0
-2 -6 0
-2 -7 0
-2 -8 0
-2 -9 0
-2 -10 0
-2 -11 0
-2 -12 0
-2 -13 0
-2 -14 0
-3 -4 0
-3 -5 0
-3 -6 0
-3 -7 0
-3 -8 0
-3 -9 0
-3 -10 0
-3 -11 0
-3 -12 0
-3 -13 0
-3 -14 0
-4 -5 0
-4 -6 0
-4 -7 0
-4 -8 0
-4 -9 0
-4 -10 0
-4 -11 0
-4 -12 0
-4 -13 0
-4 -14 0
-5 -6 0
-5 -7 0
-5 -8 0
-5 -9 0
-5 -10 0
-5 -11 0
-5 -12 0
-5 -13 0
-5 -14 0
-6 -7 0
-6 -8 0
-6 -9 0
-6 -10 0
-6 -11 0
-6 -12 0
-6 -13 0
-6 -14 0
-7 -8 0
-7 -9 0
-7 -10 0
-7 -11 0
-7 -12 0
-7 -13 0
-7 -14 0
-8 -9 0
-8 -10 0
-8 -11 0
-8 -12 0
-8 -13 0
-8 -14 0
-9 -10 0
-9 -11 0
-9 -12 0
-9 -13 0
-9 -14 0
-10 -11 0
-10 -12 0
-10 -13 0
-10 -14 0
-11 -12 0
-11 -13 0
-11 -14 0
-12 -13 0
-12 -14 0
-13 -14 0
5426 5427 5428 5429 5430 5431 5432 5433 5434 5435 5436 5437 5438 5439 5440 5441 5442 0
-5426 -5427 0
-5426 -5428 0
-5426 -5429 0
-5426 -5430 0
-5426 -5431 0
-5426 -5432 0
-5426 -5433 0
-5426 -5434 0
-5426 -5435 0
-5426 -5436 0
-5426 -5437 0
-5426 -5438 0
-5426 -5439 0
-5426 -5440 0
-5426 -5441 0
-5426 -5442 0
-5427 -5428 0
-5427 -5429 0
-5427 -5430 0
-5427 -5431 0
-5427 -5432 0
-5427 -5433 0
-5427 -5434 0
-5427 -5435 0
-5427 -5436 0
-5427 -5437 0
-5427 -5438 0
-5427 -5439 0
-5427 -5440 0
-5427 -5441 0
-5427 -5442 0
-5428 -5429 0
-5428 -5430 0
-5428 -5431 0
-5428 -5432 0
-5428 -5433 0
-5428 -5434 0
-5428 -5435 0
-5428 -5436 0
-5428 -5437 0
-5428 -5438 0
-5428 -5439 0
-5428 -5440 0
-5428 -5441 0
-5428 -5442 0
-5429 -5430 0
-5429 -5431 0
-5429 -5432 0
-5429 -5433 0
-5429 -5434 0
-5429 -5435 0
-5429 -5436 0
-5429 -5437 0
-5429 -5438 0
-5429 -5439 0
-5429 -5440 0
-5429 -5441 0
-5429 -5442 0
-5430 -5431 0
-5430 -5432 0
-5430 -5433 0
-5430 -5434 0
-5430 -5435 0
-5430 -5436 0
-5430 -5437 0
-5430 -5438 0
-5430 -5439 0
-5430 -5440 0
-5430 -5441 0
-5430 -5442 0
-5431 -5432 0
-5431 -5433 0
-5431 -5434 0
-5431 -5435 0
-5431 -5436 0
-5431 -5437 0
-5431 -5438 0
-5431 -5439 0
-5431 -5440 0
-5431 -5441 0
-5431 -5442 0
-5432 -5433 0
-5432 -5434 0
-5432 -5435 0
-5432 -5436 0
-5432 -5437 0
-5432 -5438 0
-5432 -5439 0
-5432 -5440 0
-5432 -5441 0
-5432 -5442 0
-5433 -5434 0
-5433 -5435 0
-5433 -5436 0
-5433 -5437 0
-5433 -5438 0
-5433 -5439 0
-5433 -5440 0
-5433 -5441 0
-5433 -5442 0
-5434 -5435 0
-5434 -5436 0
-5434 -5437 0
-5434 -5438 0
-5434 -5439 0
-5434 -5440 0
-5434 -5441 0
-5434 -5442 0
-5435 -5436 0
-5435 -5437 0
-5435 -5438 0
-5435 -5439 0
-5435 -5440 0
-5435 -5441 0
-5435 -5442 0
-5436 -5437 0
-5436 -5438 0
-5436 -5439 0
-5436 -5440 0
-5436 -5441 0
-5436 -5442 0
-5437 -5438 0
-5437 -5439 0
-5437 -5440 0
-5437 -5441 0
-5437 -5442 0
-5438 -5439 0
-5438 -5440 0
-5438 -5441 0
-5438 -5442 0
-5439 -5440 0
-5439 -5441 0
-5439 -5442 0
-5440 -5441 0
-5440 -5442 0
-5441 -5442 0
